certificates/rado_a7_c2_N53.cnf
c Rad2 upper bound instance: x1 + 7*x2 - x3 = 2, interval [1,53]
p cnf 53 378
1 6 0
-1 -6 0
1 2 13 0
-1 -2 -13 0
1 3 20 0
-1 -3 -20 0
1 4 27 0
-1 -4 -27 0
1 5 34 0
-1 -5 -34 0
1 6 41 0
-1 -6 -41 0
1 7 48 0
-1 -7 -48 0
1 2 7 0
-1 -2 -7 0
2 14 0
-2 -14 0
2 3 21 0
-2 -3 -21 0
2 4 28 0
-2 -4 -28 0
2 5 35 0
-2 -5 -35 0
2 6 42 0
-2 -6 -42 0
2 7 49 0
-2 -7 -49 0
1 3 8 0
-1 -3 -8 0
2 3 15 0
-2 -3 -15 0
3 22 0
-3 -22 0
3 4 29 0
-3 -4 -29 0
3 5 36 0
-3 -5 -36 0
3 6 43 0
-3 -6 -43 0
3 7 50 0
-3 -7 -50 0
1 4 9 0
-1 -4 -9 0
2 4 16 0
-2 -4 -16 0
3 4 23 0
-3 -4 -23 0
4 30 0
-4 -30 0
4 5 37 0
-4 -5 -37 0
4 6 44 0
-4 -6 -44 0
4 7 51 0
-4 -7 -51 0
1 5 10 0
-1 -5 -10 0
2 5 17 0
-2 -5 -17 0
3 5 24 0
-3 -5 -24 0
4 5 31 0
-4 -5 -31 0
5 38 0
-5 -38 0
5 6 45 0
-5 -6 -45 0
5 7 52 0
-5 -7 -52 0
1 6 11 0
-1 -6 -11 0
2 6 18 0
-2 -6 -18 0
3 6 25 0
-3 -6 -25 0
4 6 32 0
-4 -6 -32 0
5 6 39 0
-5 -6 -39 0
6 46 0
-6 -46 0
6 7 53 0
-6 -7 -53 0
1 7 12 0
-1 -7 -12 0
2 7 19 0
-2 -7 -19 0
3 7 26 0
-3 -7 -26 0
4 7 33 0
-4 -7 -33 0
5 7 40 0
-5 -7 -40 0
6 7 47 0
-6 -7 -47 0
1 8 13 0
-1 -8 -13 0
2 8 20 0
-2 -8 -20 0
3 8 27 0
-3 -8 -27 0
4 8 34 0
-4 -8 -34 0
5 8 41 0
-5 -8 -41 0
6 8 48 0
-6 -8 -48 0
1 9 14 0
-1 -9 -14 0
2 9 21 0
-2 -9 -21 0
3 9 28 0
-3 -9 -28 0
4 9 35 0
-4 -9 -35 0
5 9 42 0
-5 -9 -42 0
6 9 49 0
-6 -9 -49 0
1 10 15 0
-1 -10 -15 0
2 10 22 0
-2 -10 -22 0
3 10 29 0
-3 -10 -29 0
4 10 36 0
-4 -10 -36 0
5 10 43 0
-5 -10 -43 0
6 10 50 0
-6 -10 -50 0
1 11 16 0
-1 -11 -16 0
2 11 23 0
-2 -11 -23 0
3 11 30 0
-3 -11 -30 0
4 11 37 0
-4 -11 -37 0
5 11 44 0
-5 -11 -44 0
6 11 51 0
-6 -11 -51 0
1 12 17 0
-1 -12 -17 0
2 12 24 0
-2 -12 -24 0
3 12 31 0
-3 -12 -31 0
4 12 38 0
-4 -12 -38 0
5 12 45 0
-5 -12 -45 0
6 12 52 0
-6 -12 -52 0
1 13 18 0
-1 -13 -18 0
2 13 25 0
-2 -13 -25 0
3 13 32 0
-3 -13 -32 0
4 13 39 0
-4 -13 -39 0
5 13 46 0
-5 -13 -46 0
6 13 53 0
-6 -13 -53 0
1 14 19 0
-1 -14 -19 0
2 14 26 0
-2 -14 -26 0
3 14 33 0
-3 -14 -33 0
4 14 40 0
-4 -14 -40 0
5 14 47 0
-5 -14 -47 0
1 15 20 0
-1 -15 -20 0
2 15 27 0
-2 -15 -27 0
3 15 34 0
-3 -15 -34 0
4 15 41 0
-4 -15 -41 0
5 15 48 0
-5 -15 -48 0
1 16 21 0
-1 -16 -21 0
2 16 28 0
-2 -16 -28 0
3 16 35 0
-3 -16 -35 0
4 16 42 0
-4 -16 -42 0
5 16 49 0
-5 -16 -49 0
1 17 22 0
-1 -17 -22 0
2 17 29 0
-2 -17 -29 0
3 17 36 0
-3 -17 -36 0
4 17 43 0
-4 -17 -43 0
5 17 50 0
-5 -17 -50 0
1 18 23 0
-1 -18 -23 0
2 18 30 0
-2 -18 -30 0
3 18 37 0
-3 -18 -37 0
4 18 44 0
-4 -18 -44 0
5 18 51 0
-5 -18 -51 0
1 19 24 0
-1 -19 -24 0
2 19 31 0
-2 -19 -31 0
3 19 38 0
-3 -19 -38 0
4 19 45 0
-4 -19 -45 0
5 19 52 0
-5 -19 -52 0
1 20 25 0
-1 -20 -25 0
2 20 32 0
-2 -20 -32 0
3 20 39 0
-3 -20 -39 0
4 20 46 0
-4 -20 -46 0
5 20 53 0
-5 -20 -53 0
1 21 26 0
-1 -21 -26 0
2 21 33 0
-2 -21 -33 0
3 21 40 0
-3 -21 -40 0
4 21 47 0
-4 -21 -47 0
1 22 27 0
-1 -22 -27 0
2 22 34 0
-2 -22 -34 0
3 22 41 0
-3 -22 -41 0
4 22 48 0
-4 -22 -48 0
1 23 28 0
-1 -23 -28 0
2 23 35 0
-2 -23 -35 0
3 23 42 0
-3 -23 -42 0
4 23 49 0
-4 -23 -49 0
1 24 29 0
-1 -24 -29 0
2 24 36 0
-2 -24 -36 0
3 24 43 0
-3 -24 -43 0
4 24 50 0
-4 -24 -50 0
1 25 30 0
-1 -25 -30 0
2 25 37 0
-2 -25 -37 0
3 25 44 0
-3 -25 -44 0
4 25 51 0
-4 -25 -51 0
1 26 31 0
-1 -26 -31 0
2 26 38 0
-2 -26 -38 0
3 26 45 0
-3 -26 -45 0
4 26 52 0
-4 -26 -52 0
1 27 32 0
-1 -27 -32 0
2 27 39 0
-2 -27 -39 0
3 27 46 0
-3 -27 -46 0
4 27 53 0
-4 -27 -53 0
1 28 33 0
-1 -28 -33 0
2 28 40 0
-2 -28 -40 0
3 28 47 0
-3 -28 -47 0
1 29 34 0
-1 -29 -34 0
2 29 41 0
-2 -29 -41 0
3 29 48 0
-3 -29 -48 0
1 30 35 0
-1 -30 -35 0
2 30 42 0
-2 -30 -42 0
3 30 49 0
-3 -30 -49 0
1 31 36 0
-1 -31 -36 0
2 31 43 0
-2 -31 -43 0
3 31 50 0
-3 -31 -50 0
1 32 37 0
-1 -32 -37 0
2 32 44 0
-2 -32 -44 0
3 32 51 0
-3 -32 -51 0
1 33 38 0
-1 -33 -38 0
2 33 45 0
-2 -33 -45 0
3 33 52 0
-3 -33 -52 0
1 34 39 0
-1 -34 -39 0
2 34 46 0
-2 -34 -46 0
3 34 53 0
-3 -34 -53 0
1 35 40 0
-1 -35 -40 0
2 35 47 0
-2 -35 -47 0
1 36 41 0
-1 -36 -41 0
2 36 48 0
-2 -36 -48 0
1 37 42 0
-1 -37 -42 0
2 37 49 0
-2 -37 -49 0
1 38 43 0
-1 -38 -43 0
2 38 50 0
-2 -38 -50 0
1 39 44 0
-1 -39 -44 0
2 39 51 0
-2 -39 -51 0
1 40 45 0
-1 -40 -45 0
2 40 52 0
-2 -40 -52 0
1 41 46 0
-1 -41 -46 0
2 41 53 0
-2 -41 -53 0
1 42 47 0
-1 -42 -47 0
1 43 48 0
-1 -43 -48 0
1 44 49 0
-1 -44 -49 0
1 45 50 0
-1 -45 -50 0
1 46 51 0
-1 -46 -51 0
1 47 52 0
-1 -47 -52 0
1 48 53 0
-1 -48 -53 0
