certificates/rado_a7_c2_N53.drat
1 -52 -53 0
-52 -53 0
d 1 -52 -53 0
-7 -53 0
7 48 0
d 7 1 48 0
-53 0
7 0
-6 0
1 0
46 0
13 0
-12 0
-2 0
-48 0
-51 0
-41 0
-18 0
-5 0
-8 0
24 0
52 0
14 0
42 0
0
